w = 15;

n = 25;

r2 = array1d(1..2, [2, 11]);

r3 = array1d(1..2, [3, 2]);

r4 = array1d(1..2, [7, 10]);

r5 = array1d(1..2, [4, 8]);

r6 = array1d(1..2, [5, 9]);

r7 = array1d(1..2, [2, 7]);

r8 = array1d(1..2, [1, 4]);

r9 = array1d(1..2, [1, 6]);

r10 = array1d(1..2, [5, 4]);

r11 = array1d(1..2, [3, 8]);

r12 = array1d(1..2, [3, 1]);

r13 = array1d(1..2, [5, 5]);

r14 = array1d(1..2, [1, 3]);

r15 = array1d(1..2, [4, 12]);

r16 = array1d(1..2, [2, 6]);

r17 = array1d(1..2, [4, 2]);

r18 = array1d(1..2, [4, 11]);

r19 = array1d(1..2, [2, 10]);

r20 = array1d(1..2, [2, 3]);

r21 = array1d(1..2, [2, 11]);

r22 = array1d(1..2, [4, 3]);

r23 = array1d(1..2, [4, 26]);

r24 = array1d(1..2, [4, 8]);

r25 = array1d(1..2, [2, 3]);

r26 = array1d(1..2, [2, 6]);

